303, 0, 0, 96, 1
304, 0, 1, 69, 3
305, 0, 2, 76, 0
306, 0, 3, 53, 2
307, 1, 0, 69, 2
308, 1, 1, 54, 0
309, 1, 2, 83, 3
310, 1, 3, 30, 1
311, 2, 0, 50, 1
312, 2, 1, 39, 2
313, 2, 2, 97, 0
314, 2, 3, 88, 3
315, 3, 0, 82, 1
316, 3, 1, 69, 0
317, 3, 2, 57, 3
318, 3, 3, 49, 2
